SPARKNaCl/why3-z3/sparknacl-sign.adb_193_21_division_check_1.smt2
;; produced by z3_gnatprove.drv ;;
(set-info :smt-lib-version 2.5)
(set-info :source |VC generated by SPARK 2014|)
(set-info :category industrial)
(set-info :status unknown)
;;; generated by SMT-LIB2 driver
;;; SMT-LIB2 driver: bit-vectors, common part
;;; SMT-LIB2: integer arithmetic
(declare-sort gf16_normal_limb 0)

;; "to_rep"
(declare-fun to_rep (gf16_normal_limb) (_ BitVec 16))

;; "of_rep"
(declare-fun of_rep ((_ BitVec 16)) gf16_normal_limb)

;; "inversion_axiom"
(assert
  (forall ((x gf16_normal_limb))
    (! (= (of_rep (to_rep x)) x) :pattern ((to_rep x)) )))

;; "range_axiom"
(assert true)

;; "coerce_axiom"
(assert
  (forall ((x (_ BitVec 16)))
    (! (= (to_rep (of_rep x)) x) :pattern ((to_rep (of_rep x))) )))

(declare-sort map1 0)

;; "has_bounds"
(declare-fun has_bounds (map1
  Int
  Int) Bool)

(declare-const a map1)

(declare-sort byte 0)

;; "to_rep"
(declare-fun to_rep1 (byte) (_ BitVec 8))

;; "of_rep"
(declare-fun of_rep1 ((_ BitVec 8)) byte)

;; "inversion_axiom"
(assert
  (forall ((x byte)) (! (= (of_rep1 (to_rep1 x)) x) :pattern ((to_rep1 x)) )))

;; "range_axiom"
(assert true)

;; "coerce_axiom"
(assert
  (forall ((x (_ BitVec 8)))
    (! (= (to_rep1 (of_rep1 x)) x) :pattern ((to_rep1 (of_rep1 x))) )))

(declare-sort map2 0)

(declare-datatypes ()
  ((map__ref (map__refqtmk (map__content map2)))))

;; "has_bounds"
(declare-fun has_bounds1 (map2
  Int
  Int) Bool)

;; "get"
(declare-fun get (map2
  Int) byte)

;; "pack_25519"
(declare-fun pack_25519 (map1) map2)

;; "pack_25519__function_guard"
(declare-fun pack_25519__function_guard (map2
  map1) Bool)

(declare-const d map2)

;; "d'unused"
(define-fun dqtunused () map__ref
  (map__refqtmk d))

;; "Assume"
(assert (has_bounds a 0 15))

;; "Assume"
(assert true)

;; "Assume"
(assert (has_bounds1 d 0 31))

;; "o"
(define-fun o () map1
  a)

;; "o"
(define-fun o1 () map2
  (pack_25519 o))

;; "H"
(assert (pack_25519__function_guard o1 o))

;; "H"
(assert (has_bounds1 o1 0 31))

;; "pack_25519'result'unused"
(define-fun pack_25519qtresultqtunused () map2
  o1)

(declare-const d1 map2)

;; "d'unused"
(define-fun dqtunused1 () map__ref
  (map__refqtmk d1))

;; "H"
(assert (= d1 o1))

;; "map__content'result'unused"
(define-fun map__contentqtresultqtunused () map2
  d1)

;; "o"
(define-fun o2 () byte
  (get d1 0))

;; "get'result'unused"
(define-fun getqtresultqtunused () byte
  o2)

(declare-const o3 (_ BitVec 8))

;; "Ensures"
(assert (= (to_rep1 o2) o3))

;; "to_rep'result'unused"
(define-fun to_repqtresultqtunused () (_ BitVec 8)
  o3)

;; Goal "def'vc"
;; File "sparknacl-sign.adb", line 82, characters 0-0
(assert
  (not (not (= #x02 #x00))))

(check-sat)
